NAME          EXAMPLE1
ROWS
 N   O0
 L   C0
 L   C1
 L   C2
 L   C3
 L   C4
 L   C5
 L   C6
 L   C7
 L   C8
 E   C9
 E   C10
 E   C11
 E   C12
 E   C13
 E   C14
 E   C15
 E   C16
 E   C17
 E   C18
 E   C19
 E   C20
 E   C21
 E   C22
 E   C23
 E   C24
COLUMNS
    V0        C9        1.0
    V0        C0        1
    V1        C10       -1.0
    V1        C1        -1.0
    V2        C11       -1.0
    V2        C2        -1.0
    V3        C12       -1.0
    V3        C3        -1.0
    V4        C13       -1.0
    V4        C4        -1.0
    V5        C5        1
    V5        C14       -4000.0
    V5        C18       -1.0
    V5        C22       -1
    V6        C6        1
    V6        C15       -4200.0
    V6        C19       -1.0
    V6        C22       -1
    V7        C7        1
    V7        C16       -4300.0
    V7        C20       -1.0
    V7        C22       -1
    V8        C8        1
    V8        C17       -3900.0
    V8        C21       -1.0
    V8        C22       -1
    V9        C14       1
    V9        C24       -1
    V10       C15       1
    V10       C24       -1
    V11       C16       1
    V11       C24       -1
    V12       C17       1
    V12       C24       -1
    V13       C10       1
    V13       C18       1
    V14       C11       1
    V14       C19       1
    V15       C12       1
    V15       C20       1
    V16       C13       1
    V16       C21       1
    V17       C9        -1
    V17       C23       1
    V18       C22       1
    V18       C23       -1.0
    V19       C24       1
    V19       O0        1
RHS
    RHS0      C0        400.0
    RHS1      C1        -60.0
    RHS2      C2        -70.0
    RHS3      C3        -100.0
    RHS4      C4        -30.0
    RHS5      C5        180.0
    RHS6      C6        160.0
    RHS7      C7        100.0
    RHS8      C8        140.0
    RHS9     C9        0
    RHS10     C10       0
    RHS11     C11       0
    RHS12     C12       0
    RHS13     C13       0
    RHS14     C14       0
    RHS15     C15       0
    RHS16     C16       0
    RHS17     C17       0
    RHS18     C18       0
    RHS19     C19       0
    RHS20     C20       0
    RHS21     C21       0
    RHS22     C22       0
    RHS23     C23       0
    RHS24     C24       0
BOUNDS
 LO BND1    V0        0
 LO BND1    V1        0
 LO BND1    V2        0
 LO BND1    V3        0
 LO BND1    V4        0
 LO BND1    V5        0
 LO BND1    V6        0
 LO BND1    V7        0
 LO BND1    V8        0
 LO BND1    V9        0
 LO BND1    V10        0
 LO BND1    V11        0
 LO BND1    V12        0
 LO BND1    V13        0
 LO BND1    V14        0
 LO BND1    V15        0
 LO BND1    V16        0
 LO BND1    V17        0
 LO BND1    V18        0
 LO BND1    V19        0
ENDATA